
numDies = 20; % numero de dies
m = 3; % num linacs
s = 8; % num sessions per pacient
p = 45; % num pacients
tolerancia = 3; % diferencia maxima diaSesio i separacio
solicitud = 14; % dies maxims fins primera visita

disponible = [|  4,  4,  3,  3,  3,  9, 18, 16, 19,  8, 33, 33, 32, 35, 27, 49, 49, 49, 49, 49
              |  4,  4,  3,  3,  3, 21, 20, 18, 21, 20, 35, 35, 34, 35, 33, 49, 49, 49, 49, 49
              |  9,  7,  9,  4,  4, 26, 24, 21, 22, 22, 39, 35, 35, 39, 36, 49, 49, 49, 49, 49 |]; % capacitat de cada linac

duracio = [| 2, 2, 2, 2, 2, 2, 2, 2
            | 2, 2, 2, 2, 2, 2, 2, 2
            | 2, 2, 2, 2, 2, 2, 2, 2
            | 2, 2, 2, 2, 2, 2, 2, 2
            | 2, 2, 2, 2, 2, 2, 2, 2
            | 2, 2, 2, 2, 2, 2, 2, 2
            | 2, 2, 2, 2, 2, 2, 2, 2
            | 2, 2, 2, 2, 2, 2, 2, 2
            | 2, 2, 2, 2, 2, 2, 2, 2
            | 2, 2, 2, 2, 2, 2, 2, 2
            | 2, 2, 2, 2, 2, 3, 3, 3
            | 2, 2, 2, 2, 2, 3, 3, 3
            | 2, 2, 2, 2, 2, 3, 3, 3
            | 2, 2, 2, 2, 2, 3, 3, 3
            | 2, 2, 2, 2, 2, 3, 3, 3
            | 2, 2, 2, 2, 2, 3, 3, 3
            | 2, 2, 2, 2, 2, 3, 3, 3
            | 2, 2, 2, 2, 2, 3, 3, 3
            | 2, 2, 2, 2, 2, 3, 3, 3
            | 2, 2, 2, 2, 2, 3, 3, 3
            | 2, 2, 2, 2, 2, 3, 3, 3
            | 2, 2, 2, 2, 2, 3, 3, 3
            | 3, 3, 3, 3, 3, 2, 2, 2
            | 3, 3, 3, 3, 3, 2, 2, 2
            | 3, 3, 3, 3, 3, 2, 2, 2
            | 3, 3, 3, 3, 3, 2, 2, 2
            | 3, 3, 3, 3, 3, 2, 2, 2
            | 3, 3, 3, 3, 3, 2, 2, 2
            | 3, 3, 3, 3, 3, 2, 2, 2
            | 3, 3, 3, 3, 3, 2, 2, 2
            | 3, 3, 3, 3, 3, 2, 2, 2
            | 3, 3, 3, 3, 3, 3, 3, 3
            | 3, 3, 3, 3, 3, 3, 3, 3
            | 3, 3, 3, 3, 3, 3, 3, 3
            | 3, 3, 3, 3, 3, 3, 3, 3
            | 3, 3, 3, 3, 3, 3, 3, 3
            | 3, 3, 3, 3, 3, 3, 3, 3
            | 3, 3, 3, 3, 3, 3, 3, 3
            | 3, 3, 3, 3, 3, 3, 3, 3
            | 3, 3, 3, 3, 3, 3, 3, 3
            | 3, 3, 3, 3, 3, 3, 3, 3
            | 3, 3, 3, 3, 3, 3, 3, 3
            | 3, 3, 3, 3, 3, 3, 3, 3
            | 3, 3, 3, 3, 3, 3, 3, 3
            | 3, 3, 3, 3, 3, 3, 3, 3 |]; % duracion de la sesion (2 o 3 instants de temps)(30 o 45 mins)

separacio = [| 1, 2, 2, 1, 3, 1, 3
              | 1, 2, 2, 1, 1, 2, 2
              | 1, 2, 2, 1, 1, 2, 2
              | 1, 2, 2, 1, 1, 2, 2
              | 1, 2, 2, 1, 1, 2, 2
              | 1, 2, 2, 1, 1, 2, 2
              | 1, 2, 2, 1, 1, 2, 2
              | 1, 2, 2, 1, 1, 2, 2
              | 1, 2, 2, 1, 1, 2, 2
              | 1, 2, 2, 1, 1, 2, 2
              | 1, 2, 2, 1, 3, 1, 3
              | 1, 2, 2, 1, 3, 1, 3
              | 1, 2, 2, 1, 3, 1, 3
              | 1, 2, 2, 1, 3, 1, 3
              | 1, 2, 2, 1, 1, 2, 2
              | 1, 2, 2, 1, 1, 2, 2
              | 1, 2, 2, 1, 1, 2, 2
              | 1, 2, 2, 1, 1, 2, 2
              | 1, 2, 2, 1, 1, 2, 2
              | 1, 2, 2, 1, 1, 2, 2
              | 1, 2, 2, 1, 1, 2, 2
              | 1, 2, 2, 1, 1, 2, 2
              | 1, 2, 2, 1, 1, 2, 2
              | 1, 2, 2, 1, 1, 2, 2
              | 1, 2, 2, 1, 3, 1, 3
              | 1, 2, 2, 1, 3, 1, 3
              | 1, 2, 2, 1, 1, 2, 2
              | 1, 2, 2, 1, 1, 2, 2
              | 1, 2, 2, 1, 1, 2, 2
              | 1, 2, 2, 1, 1, 2, 2
              | 1, 2, 2, 1, 1, 2, 2
              | 1, 2, 2, 1, 1, 2, 2
              | 1, 2, 2, 1, 1, 2, 2
              | 1, 2, 2, 1, 1, 2, 2
              | 1, 2, 2, 1, 1, 2, 2
              | 1, 2, 2, 1, 1, 2, 2
              | 3, 1, 3, 1, 1, 2, 2
              | 3, 1, 3, 1, 1, 2, 2
              | 3, 1, 3, 1, 1, 2, 2
              | 3, 1, 3, 1, 1, 2, 2
              | 1, 2, 2, 1, 3, 1, 3
              | 1, 2, 2, 1, 3, 1, 3
              | 1, 2, 2, 1, 3, 1, 3
              | 1, 2, 2, 1, 3, 1, 3
              | 1, 2, 2, 1, 1, 2, 2 |]; % separacio ideal entre sesions 

grup = [1, 2, 2, 2, 2, 2, 2, 2, 2, 2, 3, 3, 3, 3, 4, 4, 4, 4, 4, 4, 4, 4, 4, 4, 5, 5, 6, 6, 6, 6, 6, 6, 6, 6, 6, 6, 7, 7, 7, 7, 8, 8, 8, 8, 9]; % pacients amb mateix grup son identics